p cnf 436 1613
c ind 360 345 351 350 340 349 347 357 346 354 0
c ind 356 353 348 355 344 343 352 342 341 0
42 237 360 0
42 43 -358 360 0
42 -43 358 360 0
-42 -360 0
43 -237 -42 358 0
-43 -237 -42 -358 0
43 44 -52 0
43 -44 52 0
-43 -44 -52 0
-43 44 52 0
44 -45 -47 0
44 45 47 0
-44 45 -47 0
-44 -45 47 0
45 -46 -347 0
-45 347 0
-45 46 0
46 -345 -346 0
-46 345 0
-46 346 0
47 -48 -50 0
47 -50 -51 0
47 -48 -51 0
-47 48 51 0
-47 50 51 0
-47 48 50 0
46 48 354 0
48 49 353 0
46 48 49 0
48 353 354 0
-46 -48 -353 0
-48 -49 -354 0
49 345 -346 0
49 -345 346 0
-49 -345 -346 0
-49 345 346 0
46 49 50 0
50 347 354 0
49 50 354 0
46 50 347 0
-46 -50 -354 0
-49 -50 -347 0
51 344 -345 0
51 343 -345 0
-51 345 0
-51 -343 -344 0
52 53 -55 0
52 -55 -65 0
52 53 -65 0
-52 55 65 0
-52 -53 55 0
-52 -53 65 0
-48 53 -54 0
48 53 54 0
48 -53 -54 0
-48 -53 54 0
50 -51 54 0
-50 51 54 0
-50 -51 -54 0
50 51 -54 0
48 55 -56 0
55 -56 -57 0
48 55 -57 0
-55 56 57 0
-48 -55 56 0
-48 -55 57 0
56 345 347 0
56 -343 -344 -345 0
56 343 344 -347 0
56 343 345 0
56 344 345 0
-56 343 -344 -345 0
-56 -343 -344 345 -347 0
-56 -343 344 -345 0
-56 343 -345 347 0
57 -58 -63 0
57 -63 -64 0
57 -58 -64 0
-57 58 64 0
-57 63 64 0
-57 58 63 0
58 61 -62 0
58 59 60 0
58 59 -62 0
58 60 61 0
-58 -59 -61 0
-58 -60 62 0
59 343 -344 0
59 -343 344 0
-59 -343 -344 0
-59 343 344 0
60 -343 -344 345 0
60 343 344 -345 0
-60 -343 -345 0
-60 344 345 0
-60 343 -344 0
61 345 -347 0
61 -345 347 0
-61 -345 -347 0
-61 345 347 0
62 -345 -354 0
62 345 354 0
-62 345 -354 0
-62 -345 354 0
46 63 353 0
49 63 352 0
46 49 63 0
63 352 353 0
-46 -63 -352 0
-49 -63 -353 0
64 342 -343 0
64 341 -343 0
-64 343 0
-64 -341 -342 0
65 -66 -68 0
65 -68 -77 0
65 -66 -77 0
-65 66 77 0
-65 68 77 0
-65 66 68 0
57 66 -67 0
-57 66 67 0
-57 -66 -67 0
57 -66 67 0
-48 -56 67 0
48 56 67 0
48 -56 -67 0
-48 56 -67 0
68 -69 -73 0
68 -69 71 0
68 71 -73 0
-68 -71 73 0
-68 69 73 0
-68 69 -71 0
69 343 347 0
69 70 -342 -343 0
69 -70 343 0
69 70 342 -347 0
-69 -70 -343 0
-69 342 -343 347 0
-69 70 -342 343 -347 0
70 341 -342 0
70 -341 342 0
-70 -341 -342 0
-70 341 342 0
-64 71 -72 0
64 71 72 0
64 -71 -72 0
-64 -71 72 0
58 -63 72 0
-58 63 72 0
-58 -63 -72 0
58 63 -72 0
69 73 -74 0
73 -74 -76 0
69 73 -76 0
-73 74 76 0
-69 -73 74 0
-69 -73 76 0
59 60 74 0
-62 74 -75 0
59 74 -75 0
60 -62 74 0
-59 62 -74 0
-60 -74 75 0
75 -345 -353 0
75 345 353 0
-75 345 -353 0
-75 -345 353 0
46 76 352 0
49 76 351 0
46 49 76 0
76 351 352 0
-46 -76 -351 0
-49 -76 -352 0
77 99 -101 0
77 78 99 0
77 78 -101 0
-77 -78 -99 0
-77 -99 101 0
-77 -78 101 0
78 -86 88 0
78 79 88 0
78 79 -86 0
-78 -79 -88 0
-78 -79 86 0
-78 86 -88 0
79 -80 -81 0
79 -81 -85 0
79 -80 -85 0
-79 80 85 0
-79 81 85 0
-79 80 81 0
80 340 -341 0
80 -341 349 0
-80 341 0
-80 -340 -349 0
81 82 83 0
70 81 84 0
81 83 84 0
70 81 82 0
-70 -81 -83 0
-81 -82 -84 0
82 -341 -342 343 0
82 341 342 -343 0
-82 -341 -343 0
-82 342 343 0
-82 341 -342 0
83 343 -347 0
83 -343 347 0
-83 -343 -347 0
-83 343 347 0
84 343 -354 0
84 -343 354 0
-84 -343 -354 0
-84 343 354 0
46 85 351 0
49 85 350 0
46 49 85 0
85 350 351 0
-46 -85 -350 0
-49 -85 -351 0
-76 86 -87 0
76 86 87 0
76 -86 -87 0
-76 -86 87 0
-69 -74 87 0
69 74 87 0
69 -74 -87 0
-69 74 -87 0
88 -89 -91 0
88 -91 -93 0
88 -89 -93 0
-88 89 93 0
-88 91 93 0
-88 89 91 0
59 60 89 0
-75 89 -90 0
59 89 -90 0
60 -75 89 0
-59 75 -89 0
-60 -89 90 0
90 -345 -352 0
90 345 352 0
-90 345 -352 0
-90 -345 352 0
91 341 347 0
91 92 -340 -341 0
91 -92 341 0
91 92 340 -347 0
-91 -92 -341 0
-91 340 -341 347 0
-91 92 -340 341 -347 0
92 340 -349 0
92 -340 349 0
-92 -340 -349 0
-92 340 349 0
93 -94 -96 0
93 -96 -97 0
93 -94 -97 0
-93 94 97 0
-93 96 97 0
-93 94 96 0
59 60 94 0
-90 94 -95 0
59 94 -95 0
60 -90 94 0
-59 90 -94 0
-60 -94 95 0
95 -345 -351 0
95 345 351 0
-95 345 -351 0
-95 -345 351 0
46 49 96 0
96 350 357 0
49 96 357 0
46 96 350 0
-46 -96 -357 0
-49 -96 -350 0
82 84 97 0
70 97 98 0
84 97 98 0
70 82 97 0
-70 -84 -97 0
-82 -97 -98 0
98 343 -353 0
98 -343 353 0
-98 -343 -353 0
-98 343 353 0
-73 99 -100 0
73 99 100 0
73 -99 -100 0
-73 -99 100 0
-69 -71 100 0
69 71 100 0
69 -71 -100 0
-69 71 -100 0
101 102 -119 0
101 -119 -121 0
101 102 -121 0
-101 119 121 0
-101 -102 119 0
-101 -102 121 0
102 -103 -105 0
102 -105 -107 0
102 -103 -107 0
-102 103 107 0
-102 105 107 0
-102 103 105 0
-93 103 -104 0
93 103 104 0
93 -103 -104 0
-93 -103 104 0
89 -91 104 0
-89 91 104 0
-89 -91 -104 0
89 91 -104 0
-85 105 -106 0
85 105 106 0
85 -105 -106 0
-85 -105 106 0
80 -81 106 0
-80 81 106 0
-80 -81 -106 0
80 81 -106 0
107 108 115 0
-91 107 108 0
-91 107 115 0
91 -107 -108 0
-107 -108 -115 0
91 -107 -115 0
108 -109 -111 0
-108 109 0
-108 111 0
59 60 109 0
-95 109 -110 0
59 109 -110 0
60 -95 109 0
-59 95 -109 0
-60 -109 110 0
110 -345 -350 0
110 345 350 0
-110 345 -350 0
-110 -345 350 0
111 112 113 0
92 111 114 0
111 113 114 0
92 111 112 0
-92 -111 -113 0
-111 -112 -114 0
112 340 -341 349 0
112 -340 341 -349 0
-112 -340 -341 0
-112 341 349 0
-112 340 -349 0
113 341 -347 0
113 -341 347 0
-113 -341 -347 0
-113 341 347 0
114 341 -354 0
114 -341 354 0
-114 -341 -354 0
-114 341 354 0
115 -116 -349 0
115 -116 -117 0
115 -117 -349 0
-115 117 349 0
-115 116 117 0
-115 116 349 0
46 116 357 0
49 116 356 0
46 49 116 0
116 356 357 0
-46 -116 -356 0
-49 -116 -357 0
82 98 117 0
70 117 118 0
98 117 118 0
70 82 117 0
-70 -98 -117 0
-82 -117 -118 0
118 343 -352 0
118 -343 352 0
-118 -343 -352 0
-118 343 352 0
88 119 -120 0
-88 119 120 0
-88 -119 -120 0
88 -119 120 0
-79 -86 120 0
79 86 120 0
79 -86 -120 0
-79 86 -120 0
121 134 -136 0
121 122 134 0
121 122 -136 0
-121 -122 -134 0
-121 -134 136 0
-121 -122 136 0
122 -123 -130 0
122 -130 -132 0
122 -123 -132 0
-122 123 132 0
-122 130 132 0
-122 123 130 0
123 124 -125 0
-123 -124 0
-123 125 0
109 -111 124 0
-109 111 124 0
-109 -111 -124 0
109 111 -124 0
125 127 129 0
125 -126 127 0
125 -126 129 0
-125 126 -127 0
-125 -127 -129 0
-125 126 -129 0
126 -348 -349 0
126 347 -349 0
-126 349 0
-126 -347 348 0
59 60 127 0
-110 127 -128 0
59 127 -128 0
60 -110 127 0
-59 110 -127 0
-60 -127 128 0
128 -345 -357 0
128 345 357 0
-128 345 -357 0
-128 -345 357 0
46 129 356 0
49 129 355 0
46 49 129 0
129 355 356 0
-46 -129 -355 0
-49 -129 -356 0
-115 130 -131 0
115 130 131 0
115 -130 -131 0
-115 -130 131 0
-91 -108 131 0
91 108 131 0
91 -108 -131 0
-91 108 -131 0
-97 132 -133 0
97 132 133 0
97 -132 -133 0
-97 -132 133 0
94 -96 133 0
-94 96 133 0
-94 -96 -133 0
94 96 -133 0
107 134 -135 0
-107 134 135 0
-107 -134 -135 0
107 -134 135 0
103 -105 135 0
-103 105 135 0
-103 -105 -135 0
103 105 -135 0
136 -137 -151 0
136 -151 -153 0
136 -137 -153 0
-136 137 153 0
-136 151 153 0
-136 137 151 0
137 138 150 0
137 140 150 0
137 138 140 0
-137 -138 -140 0
-137 -140 -150 0
-137 -138 -150 0
-117 138 -139 0
117 138 139 0
117 -138 -139 0
-117 -138 139 0
-116 139 349 0
116 139 -349 0
-116 -139 -349 0
116 -139 349 0
140 143 -145 0
140 141 143 0
140 141 -145 0
-140 -141 -143 0
-140 -143 145 0
-140 -141 145 0
82 118 141 0
70 141 142 0
118 141 142 0
70 82 141 0
-70 -118 -141 0
-82 -141 -142 0
142 343 -351 0
142 -343 351 0
-142 -343 -351 0
-142 343 351 0
112 114 143 0
92 143 144 0
114 143 144 0
92 112 143 0
-92 -114 -143 0
-112 -143 -144 0
144 341 -353 0
144 -341 353 0
-144 -341 -353 0
-144 341 353 0
145 -146 -147 0
145 -147 148 0
145 -146 148 0
-145 147 -148 0
-145 146 147 0
-145 146 -148 0
-49 146 -355 0
-146 355 0
49 -146 0
147 347 -348 -349 0
147 348 -349 354 0
147 -347 -348 349 0
-147 347 349 0
-147 348 349 0
-147 348 -354 0
-147 -347 -348 -349 0
59 60 148 0
-128 148 -149 0
59 148 -149 0
60 -128 148 0
-59 128 -148 0
-60 -148 149 0
149 -345 -356 0
149 345 356 0
-149 345 -356 0
-149 -345 356 0
-124 -125 150 0
124 125 150 0
124 -125 -150 0
-124 125 -150 0
-132 151 -152 0
132 151 152 0
132 -151 -152 0
-132 -151 152 0
123 -130 152 0
-123 130 152 0
-123 -130 -152 0
123 130 -152 0
153 167 -169 0
153 154 167 0
153 154 -169 0
-153 -154 -167 0
-153 -167 169 0
-153 -154 169 0
154 155 -157 0
154 -157 -159 0
154 155 -159 0
-154 157 159 0
-154 -155 157 0
-154 -155 159 0
-145 155 -156 0
145 155 156 0
145 -155 -156 0
-145 -155 156 0
141 -143 156 0
-141 143 156 0
-141 -143 -156 0
141 143 -156 0
-129 157 -158 0
129 157 158 0
129 -157 -158 0
-129 -157 158 0
-126 -127 158 0
126 127 158 0
126 -127 -158 0
-126 127 -158 0
159 163 165 0
159 -160 163 0
159 -160 165 0
-159 160 -163 0
-159 -163 -165 0
-159 160 -165 0
160 -161 -162 0
-160 161 0
-160 162 0
161 348 -349 353 0
161 -348 -349 354 0
161 -348 349 -354 0
-161 349 354 0
-161 348 349 0
-161 348 -353 0
-161 -348 -349 -354 0
-51 162 355 0
-51 162 343 344 0
51 -162 0
-162 -344 -355 0
-162 -343 -355 0
112 144 163 0
92 163 164 0
144 163 164 0
92 112 163 0
-92 -144 -163 0
-112 -163 -164 0
164 341 -352 0
164 -341 352 0
-164 -341 -352 0
-164 341 352 0
82 142 165 0
70 165 166 0
142 165 166 0
70 82 165 0
-70 -142 -165 0
-82 -165 -166 0
166 343 -350 0
166 -343 350 0
-166 -343 -350 0
-166 343 350 0
150 167 -168 0
-150 167 168 0
-150 -167 -168 0
150 -167 168 0
138 -140 168 0
-138 140 168 0
-138 -140 -168 0
138 140 -168 0
169 -170 -182 0
169 -182 -184 0
169 -170 -184 0
-169 170 184 0
-169 182 184 0
-169 170 182 0
170 178 180 0
170 -171 178 0
170 -171 180 0
-170 171 -178 0
-170 -178 -180 0
-170 171 -180 0
171 -172 -174 0
171 -174 -176 0
171 -172 -176 0
-171 172 176 0
-171 174 176 0
-171 172 174 0
59 60 172 0
-149 172 -173 0
59 172 -173 0
60 -149 172 0
-59 149 -172 0
-60 -172 173 0
173 343 -355 0
173 -343 355 0
-173 -343 -355 0
-173 343 355 0
112 164 174 0
92 174 175 0
164 174 175 0
92 112 174 0
-92 -164 -174 0
-112 -174 -175 0
175 341 -351 0
175 -341 351 0
-175 -341 -351 0
-175 341 351 0
82 166 176 0
70 176 177 0
166 176 177 0
70 82 176 0
-70 -166 -176 0
-82 -176 -177 0
177 343 -357 0
177 -343 357 0
-177 -343 -357 0
-177 343 357 0
-148 178 -179 0
148 178 179 0
148 -178 -179 0
-148 -178 179 0
146 -147 179 0
-146 147 179 0
-146 -147 -179 0
146 147 -179 0
-165 180 -181 0
165 180 181 0
165 -180 -181 0
-165 -180 181 0
-160 -163 181 0
160 163 181 0
160 -163 -181 0
-160 163 -181 0
-159 182 -183 0
159 182 183 0
159 -182 -183 0
-159 -182 183 0
-155 -157 183 0
155 157 183 0
155 -157 -183 0
-155 157 -183 0
184 -194 196 0
184 185 196 0
184 185 -194 0
-184 -185 -196 0
-184 -185 194 0
-184 194 -196 0
185 -186 -187 0
185 -187 -192 0
185 -186 -192 0
-185 186 192 0
-185 187 192 0
-185 186 187 0
161 -162 186 0
-161 162 186 0
-161 -162 -186 0
161 162 -186 0
187 -188 -189 0
187 -189 190 0
187 -188 190 0
-187 189 -190 0
-187 188 189 0
-187 188 -190 0
-59 188 -355 0
-188 355 0
59 -188 0
189 348 -349 352 0
189 -348 -349 353 0
189 -348 349 -353 0
-189 349 353 0
-189 348 349 0
-189 348 -352 0
-189 -348 -349 -353 0
112 175 190 0
92 190 191 0
175 190 191 0
92 112 190 0
-92 -175 -190 0
-112 -190 -191 0
191 341 -350 0
191 -341 350 0
-191 -341 -350 0
-191 341 350 0
-176 192 -193 0
176 192 193 0
176 -192 -193 0
-176 -192 193 0
172 -174 193 0
-172 174 193 0
-172 -174 -193 0
172 174 -193 0
-180 194 -195 0
180 194 195 0
180 -194 -195 0
-180 -194 195 0
-171 -178 195 0
171 178 195 0
171 -178 -195 0
-171 178 -195 0
196 205 207 0
196 -197 205 0
196 -197 207 0
-196 197 -205 0
-196 -205 -207 0
-196 197 -207 0
197 -198 -203 0
197 -198 201 0
197 201 -203 0
-197 -201 203 0
-197 198 203 0
-197 198 -201 0
198 -199 -200 0
-198 199 0
-198 200 0
-64 199 355 0
-64 199 341 342 0
64 -199 0
-199 -342 -355 0
-199 -341 -355 0
200 348 -349 351 0
200 -348 -349 352 0
200 -348 349 -352 0
-200 349 352 0
-200 348 349 0
-200 348 -351 0
-200 -348 -349 -352 0
82 177 201 0
70 201 202 0
177 201 202 0
70 82 201 0
-70 -177 -201 0
-82 -201 -202 0
202 343 -356 0
202 -343 356 0
-202 -343 -356 0
-202 343 356 0
-190 203 -204 0
190 203 204 0
190 -203 -204 0
-190 -203 204 0
188 -189 204 0
-188 189 204 0
-188 -189 -204 0
188 189 -204 0
-192 205 -206 0
192 205 206 0
192 -205 -206 0
-192 -205 206 0
186 -187 206 0
-186 187 206 0
-186 -187 -206 0
186 187 -206 0
207 -208 -213 0
207 -213 215 0
207 -208 215 0
-207 213 -215 0
-207 208 213 0
-207 208 -215 0
208 -209 -210 0
208 -210 212 0
208 -209 212 0
-208 210 -212 0
-208 209 210 0
-208 209 -212 0
173 202 209 0
70 82 209 0
82 202 209 0
70 173 209 0
-82 -173 -209 0
-70 -202 -209 0
112 191 210 0
92 210 211 0
191 210 211 0
92 112 210 0
-92 -191 -210 0
-112 -210 -211 0
211 341 -357 0
211 -341 357 0
-211 -341 -357 0
-211 341 357 0
199 -200 212 0
-199 200 212 0
-199 -200 -212 0
199 200 -212 0
-203 213 -214 0
203 213 214 0
203 -213 -214 0
-203 -213 214 0
-198 -201 214 0
198 201 214 0
198 -201 -214 0
-198 201 -214 0
215 -216 -223 0
215 -216 221 0
215 221 -223 0
-215 -221 223 0
-215 216 223 0
-215 216 -221 0
216 -217 -220 0
216 -217 218 0
216 218 -220 0
-216 -218 220 0
-216 217 220 0
-216 217 -218 0
-70 217 -355 0
-217 355 0
70 -217 0
112 211 218 0
92 218 219 0
211 218 219 0
92 112 218 0
-92 -211 -218 0
-112 -218 -219 0
219 341 -356 0
219 -341 356 0
-219 -341 -356 0
-219 341 356 0
220 348 -349 350 0
220 -348 -349 351 0
220 -348 349 -351 0
-220 349 351 0
-220 348 349 0
-220 348 -350 0
-220 -348 -349 -351 0
-212 221 -222 0
212 221 222 0
212 -221 -222 0
-212 -221 222 0
209 -210 222 0
-209 210 222 0
-209 -210 -222 0
209 210 -222 0
223 -224 -229 0
223 -224 227 0
223 227 -229 0
-223 -227 229 0
-223 224 229 0
-223 224 -227 0
224 -225 -226 0
-224 225 0
-224 226 0
-80 225 355 0
-80 225 340 349 0
80 -225 0
-225 -349 -355 0
-225 -340 -355 0
226 -348 349 -350 0
226 348 -349 357 0
226 -348 -349 350 0
-226 349 350 0
-226 348 349 0
-226 348 -357 0
-226 -348 -349 -350 0
-220 227 -228 0
220 227 228 0
220 -227 -228 0
-220 -227 228 0
-217 -218 228 0
217 218 228 0
217 -218 -228 0
-217 218 -228 0
229 -230 -231 0
229 -231 -233 0
229 -230 -233 0
-229 230 233 0
-229 231 233 0
-229 230 231 0
225 -226 230 0
-225 226 230 0
-225 -226 -230 0
225 226 -230 0
92 231 -232 0
-92 231 341 -356 0
-92 231 -341 356 0
92 -231 232 0
-92 -231 -341 -356 0
-92 -231 341 356 0
232 340 -341 355 0
232 -340 341 -355 0
-232 -340 -341 0
-232 341 355 0
-232 340 -355 0
233 234 235 0
-233 -234 0
-233 -235 0
234 349 357 0
234 348 349 0
234 348 -356 0
234 -348 -349 -357 0
-234 348 -349 356 0
-234 -348 -349 357 0
-234 -348 349 -357 0
92 235 -355 0
235 349 355 0
235 -236 355 0
-92 -235 -355 0
-235 236 -349 355 0
236 -348 -356 0
-236 348 0
-236 356 0
237 -238 -240 -377 0
237 238 -240 377 0
-237 240 0
-237 238 -377 0
-237 -238 377 0
-65 238 -239 0
65 238 239 0
65 -238 -239 0
-65 -238 239 0
-53 -55 239 0
53 55 239 0
53 -55 -239 0
-53 55 -239 0
240 -241 -243 -376 0
240 241 -243 376 0
-240 243 0
-240 241 -376 0
-240 -241 376 0
-77 241 -242 0
77 241 242 0
77 -241 -242 0
-77 -241 242 0
66 -68 242 0
-66 68 242 0
-66 -68 -242 0
66 68 -242 0
243 -244 -246 -375 0
243 244 -246 375 0
-243 246 0
-243 244 -375 0
-243 -244 375 0
-101 244 -245 0
101 244 245 0
101 -244 -245 0
-101 -244 245 0
78 -99 245 0
-78 99 245 0
-78 -99 -245 0
78 99 -245 0
246 -247 -249 -374 0
246 247 -249 374 0
-246 249 0
-246 247 -374 0
-246 -247 374 0
-121 247 -248 0
121 247 248 0
121 -247 -248 0
-121 -247 248 0
-102 -119 248 0
102 119 248 0
102 -119 -248 0
-102 119 -248 0
249 -250 -252 -373 0
249 250 -252 373 0
-249 252 0
-249 250 -373 0
-249 -250 373 0
-136 250 -251 0
136 250 251 0
136 -250 -251 0
-136 -250 251 0
122 -134 251 0
-122 134 251 0
-122 -134 -251 0
122 134 -251 0
252 -253 -255 -372 0
252 253 -255 372 0
-252 255 0
-252 253 -372 0
-252 -253 372 0
-153 253 -254 0
153 253 254 0
153 -253 -254 0
-153 -253 254 0
137 -151 254 0
-137 151 254 0
-137 -151 -254 0
137 151 -254 0
255 -256 -258 -371 0
255 256 -258 371 0
-255 258 0
-255 256 -371 0
-255 -256 371 0
-169 256 -257 0
169 256 257 0
169 -256 -257 0
-169 -256 257 0
154 -167 257 0
-154 167 257 0
-154 -167 -257 0
154 167 -257 0
258 -259 -261 -370 0
258 259 -261 370 0
-258 261 0
-258 259 -370 0
-258 -259 370 0
-184 259 -260 0
184 259 260 0
184 -259 -260 0
-184 -259 260 0
170 -182 260 0
-170 182 260 0
-170 -182 -260 0
170 182 -260 0
261 -262 -264 -369 0
261 262 -264 369 0
-261 264 0
-261 262 -369 0
-261 -262 369 0
196 262 -263 0
-196 262 263 0
-196 -262 -263 0
196 -262 263 0
-185 -194 263 0
185 194 263 0
185 -194 -263 0
-185 194 -263 0
264 -265 -284 368 0
264 -265 284 -368 0
-264 265 0
-264 -284 -368 0
-264 284 368 0
265 -266 -268 -367 0
265 266 -268 367 0
-265 268 0
-265 266 -367 0
-265 -266 367 0
215 266 -267 0
-215 266 267 0
-215 -266 -267 0
215 -266 267 0
208 -213 267 0
-208 213 267 0
-208 -213 -267 0
208 213 -267 0
268 -269 282 366 0
268 -269 -282 -366 0
-268 269 0
-268 282 -366 0
-268 -282 366 0
269 -270 -280 365 0
269 -270 280 -365 0
-269 270 0
-269 -280 -365 0
-269 280 365 0
270 -271 -278 364 0
270 -271 278 -364 0
-270 271 0
-270 -278 -364 0
-270 278 364 0
271 -272 -273 -363 0
271 272 -273 363 0
-271 273 0
-271 272 -363 0
-271 -272 363 0
234 -235 272 0
-234 235 272 0
-234 -235 -272 0
234 235 -272 0
273 274 276 -362 0
273 274 -276 362 0
-273 -274 0
-273 -276 -362 0
-273 276 362 0
274 -275 361 0
274 275 -361 0
-274 -275 -361 0
-274 275 361 0
275 -348 -355 0
-275 348 0
-275 355 0
-236 276 -277 0
236 276 277 0
236 -276 -277 0
-236 -276 277 0
277 -349 -355 0
-277 349 0
-277 355 0
-233 278 -279 0
233 278 279 0
233 -278 -279 0
-233 -278 279 0
230 -231 279 0
-230 231 279 0
-230 -231 -279 0
230 231 -279 0
-229 280 -281 0
229 280 281 0
229 -280 -281 0
-229 -280 281 0
-224 -227 281 0
224 227 281 0
224 -227 -281 0
-224 227 -281 0
223 282 -283 0
-223 282 283 0
-223 -282 -283 0
223 -282 283 0
-216 -221 283 0
216 221 283 0
216 -221 -283 0
-216 221 -283 0
207 284 -285 0
-207 284 285 0
-207 -284 -285 0
207 -284 285 0
-197 -205 285 0
197 205 285 0
197 -205 -285 0
-197 205 -285 0
287 286 360 0
-43 396 360 286 0
43 -396 360 286 0
-286 -360 0
43 -286 -287 396 0
-43 -286 -287 -396 0
238 287 288 -289 415 0
-238 287 288 -289 -415 0
-287 -288 0
-238 415 -287 0
-287 289 0
238 -415 -287 0
-241 414 288 0
241 -414 288 0
-241 -288 -414 0
241 -288 414 0
244 289 290 -291 413 0
-244 289 290 -291 -413 0
-289 -290 0
-244 413 -289 0
-289 291 0
244 -413 -289 0
-247 412 290 0
247 -412 290 0
-247 -290 -412 0
247 -290 412 0
253 291 292 -293 410 0
-253 291 292 -293 -410 0
-291 -292 0
-253 410 -291 0
-291 293 0
253 -410 -291 0
-250 411 292 0
250 -411 292 0
-250 -292 -411 0
250 -292 411 0
259 293 294 -295 408 0
-259 293 294 -295 -408 0
-293 -294 0
-259 408 -293 0
-293 295 0
259 -408 -293 0
-256 409 294 0
256 -409 294 0
-256 -294 -409 0
256 -294 409 0
262 295 296 -297 407 0
-262 295 296 -297 -407 0
-295 -296 0
-262 407 -295 0
-295 297 0
262 -407 -295 0
-284 -406 296 0
284 406 296 0
-284 -296 406 0
284 -296 -406 0
-266 297 -298 -405 0
266 297 -298 405 0
-297 298 0
266 -405 -297 0
-266 405 -297 0
-280 298 -299 -302 403 0
280 298 -299 -302 -403 0
-298 302 0
280 403 -298 0
-298 299 0
-280 -403 -298 0
272 299 300 -301 401 0
-272 299 300 -301 -401 0
-299 -300 0
-272 401 -299 0
-299 301 0
272 -401 -299 0
-278 -402 300 0
278 402 300 0
-278 -300 402 0
278 -300 -402 0
275 -276 301 399 400 0
-275 -276 301 -399 400 0
-275 276 301 -399 -400 0
275 276 301 399 -400 0
275 -399 -301 0
-275 399 -301 0
276 400 -301 0
-276 -400 -301 0
-223 302 -303 0
223 302 303 0
223 -303 -302 0
-223 303 -302 0
-283 303 404 0
283 303 -404 0
-283 -303 -404 0
283 -303 404 0
-43 304 360 0
237 304 360 0
-304 -360 0
43 -237 -304 0
-238 305 360 0
240 305 360 0
-305 -360 0
238 -240 -305 0
-241 306 360 0
243 306 360 0
-306 -360 0
241 -243 -306 0
-244 307 360 0
246 307 360 0
-307 -360 0
244 -246 -307 0
-247 308 360 0
249 308 360 0
-308 -360 0
247 -249 -308 0
-250 309 360 0
252 309 360 0
-309 -360 0
250 -252 -309 0
-253 310 360 0
255 310 360 0
-310 -360 0
253 -255 -310 0
-256 311 360 0
258 311 360 0
-311 -360 0
256 -258 -311 0
-259 312 360 0
261 312 360 0
-312 -360 0
259 -261 -312 0
-262 313 360 0
264 313 360 0
-313 -360 0
262 -264 -313 0
284 314 360 0
265 314 360 0
-314 -360 0
-265 -284 -314 0
-266 315 360 0
268 315 360 0
-315 -360 0
266 -268 -315 0
269 316 360 0
-282 316 360 0
-316 -360 0
-269 282 -316 0
280 317 360 0
270 317 360 0
-317 -360 0
-270 -280 -317 0
278 318 360 0
271 318 360 0
-318 -360 0
-271 -278 -318 0
-272 319 360 0
273 319 360 0
-319 -360 0
272 -273 -319 0
-274 320 360 0
276 320 360 0
-320 -360 0
274 -276 -320 0
-275 321 360 0
-321 -360 0
275 -321 0
237 322 360 0
43 322 360 0
-322 -360 0
-43 -237 -322 0
240 323 360 0
238 323 360 0
-323 -360 0
-238 -240 -323 0
243 324 360 0
241 324 360 0
-324 -360 0
-241 -243 -324 0
246 325 360 0
244 325 360 0
-325 -360 0
-244 -246 -325 0
249 326 360 0
247 326 360 0
-326 -360 0
-247 -249 -326 0
252 327 360 0
250 327 360 0
-327 -360 0
-250 -252 -327 0
255 328 360 0
253 328 360 0
-328 -360 0
-253 -255 -328 0
258 329 360 0
256 329 360 0
-329 -360 0
-256 -258 -329 0
261 330 360 0
259 330 360 0
-330 -360 0
-259 -261 -330 0
264 331 360 0
262 331 360 0
-331 -360 0
-262 -264 -331 0
265 332 360 0
-284 332 360 0
-332 -360 0
-265 284 -332 0
268 333 360 0
266 333 360 0
-333 -360 0
-266 -268 -333 0
282 334 360 0
269 334 360 0
-334 -360 0
-269 -282 -334 0
270 335 360 0
-280 335 360 0
-335 -360 0
-270 280 -335 0
271 336 360 0
-278 336 360 0
-336 -360 0
-271 278 -336 0
273 337 360 0
272 337 360 0
-337 -360 0
-272 -273 -337 0
-274 338 360 0
-276 338 360 0
-338 -360 0
274 276 -338 0
275 339 360 0
-339 -360 0
-275 -339 0
1 42 0
-1 -42 0
2 42 0
-2 -42 0
3 286 0
-3 -286 0
5 -304 0
-5 304 0
6 -305 0
-6 305 0
7 -306 0
-7 306 0
8 -307 0
-8 307 0
9 -308 0
-9 308 0
10 -309 0
-10 309 0
11 -310 0
-11 310 0
12 -311 0
-12 311 0
13 -312 0
-13 312 0
14 -313 0
-14 313 0
15 -314 0
-15 314 0
16 -315 0
-16 315 0
17 -316 0
-17 316 0
18 -317 0
-18 317 0
19 -318 0
-19 318 0
20 -319 0
-20 319 0
21 -320 0
-21 320 0
22 -321 0
-22 321 0
24 -322 0
-24 322 0
25 -323 0
-25 323 0
26 -324 0
-26 324 0
27 -325 0
-27 325 0
28 -326 0
-28 326 0
29 -327 0
-29 327 0
30 -328 0
-30 328 0
31 -329 0
-31 329 0
32 -330 0
-32 330 0
33 -331 0
-33 331 0
34 -332 0
-34 332 0
35 -333 0
-35 333 0
36 -334 0
-36 334 0
37 -335 0
-37 335 0
38 -336 0
-38 336 0
39 -337 0
-39 337 0
40 -338 0
-40 338 0
41 -339 0
-41 339 0
-5 -24 418 0
5 -418 0
24 -418 0
5 -358 0
-5 358 0
-6 -25 419 0
6 -419 0
25 -419 0
6 -377 0
-6 377 0
-7 -26 420 0
7 -420 0
26 -420 0
7 -376 0
-7 376 0
-8 -27 421 0
8 -421 0
27 -421 0
8 -375 0
-8 375 0
-9 -28 422 0
9 -422 0
28 -422 0
9 -374 0
-9 374 0
-10 -29 423 0
10 -423 0
29 -423 0
10 -373 0
-10 373 0
-11 -30 424 0
11 -424 0
30 -424 0
11 -372 0
-11 372 0
-12 -31 425 0
12 -425 0
31 -425 0
12 -371 0
-12 371 0
-13 -32 426 0
13 -426 0
32 -426 0
13 -370 0
-13 370 0
-14 -33 427 0
14 -427 0
33 -427 0
14 -369 0
-14 369 0
-15 -34 428 0
15 -428 0
34 -428 0
15 -368 0
-15 368 0
-16 -35 429 0
16 -429 0
35 -429 0
16 -367 0
-16 367 0
-17 -36 430 0
17 -430 0
36 -430 0
17 -366 0
-17 366 0
-18 -37 431 0
18 -431 0
37 -431 0
18 -365 0
-18 365 0
-19 -38 432 0
19 -432 0
38 -432 0
19 -364 0
-19 364 0
-20 -39 433 0
20 -433 0
39 -433 0
20 -363 0
-20 363 0
-21 -40 434 0
21 -434 0
40 -434 0
21 -362 0
-21 362 0
-22 -41 435 0
22 -435 0
41 -435 0
22 -361 0
-22 361 0
-1 0
-2 0
3 0
-4 0
23 0
42 0
-286 0
287 0
-288 0
289 0
-290 0
291 0
-292 0
293 0
-294 0
295 0
-296 0
297 0
298 0
299 0
-300 0
301 0
302 0
-359 0
-360 0
416 0
-417 0
-398 0
-383 0
-389 0
-388 0
-378 0
-387 0
-385 0
-395 0
-384 0
-392 0
-394 0
-391 0
-386 0
-393 0
-382 0
-381 0
-390 0
-380 0
-379 0

